100 0
153 105
87 139
20 56
155 60
51 137
67 125
58 205
140 91
134 141
162 146
31 52
8 100
30 4
46 26
182 21
60 143
36 147
207 33
100 151
190 209
125 61
39 125
17 128
70 154
57 189
46 68
145 45
150 78
198 23
95 174
150 155
57 2
180 63
93 118
120 108
172 150
182 80
173 45
1 51
20 77
51 40
5 140
30 20
90 107
32 65
25 181
24 100
134 118
122 137
66 179
170 105
42 97
115 27
210 200
121 152
2 203
2 77
174 32
198 40
17 37
150 36
125 27
13 178
186 10
13 20 
64 51
51 171
172 2
172 165
184 195
180 123
136 4
4 152
4 128
124 8
45 153
77 124
126 177
201 54
3 37
162 25
146 201
65 87
74 76
170 193
151 174 
160 201
207 8
86 201
84 164
190 171
195 193
60 19
78 35
7 7
18 205
151 138
201 177
200 143